c *********************************
c * Circuit generated by BenCGen
c *
c * RippleCarryAdderSubtractor_121_121_121_OutSunT
c *
c * Ports with 1 gate(s): 2
c * Ports with 2 gate(s): 728
c * Total gates: 730
c *********************************
p cnf 972 2552
1 366 0
-1 -366 0
1 -365 0
366 -365 0
-1 -366 365 0
365 367 0
-365 -367 0
122 365 -368 0
-122 365 368 0
122 -365 368 0
-122 -365 -368 0
123 365 -369 0
-123 365 369 0
123 -365 369 0
-123 -365 -369 0
124 365 -370 0
-124 365 370 0
124 -365 370 0
-124 -365 -370 0
125 365 -371 0
-125 365 371 0
125 -365 371 0
-125 -365 -371 0
126 365 -372 0
-126 365 372 0
126 -365 372 0
-126 -365 -372 0
127 365 -373 0
-127 365 373 0
127 -365 373 0
-127 -365 -373 0
128 365 -374 0
-128 365 374 0
128 -365 374 0
-128 -365 -374 0
129 365 -375 0
-129 365 375 0
129 -365 375 0
-129 -365 -375 0
130 365 -376 0
-130 365 376 0
130 -365 376 0
-130 -365 -376 0
131 365 -377 0
-131 365 377 0
131 -365 377 0
-131 -365 -377 0
132 365 -378 0
-132 365 378 0
132 -365 378 0
-132 -365 -378 0
133 365 -379 0
-133 365 379 0
133 -365 379 0
-133 -365 -379 0
134 365 -380 0
-134 365 380 0
134 -365 380 0
-134 -365 -380 0
135 365 -381 0
-135 365 381 0
135 -365 381 0
-135 -365 -381 0
136 365 -382 0
-136 365 382 0
136 -365 382 0
-136 -365 -382 0
137 365 -383 0
-137 365 383 0
137 -365 383 0
-137 -365 -383 0
138 365 -384 0
-138 365 384 0
138 -365 384 0
-138 -365 -384 0
139 365 -385 0
-139 365 385 0
139 -365 385 0
-139 -365 -385 0
140 365 -386 0
-140 365 386 0
140 -365 386 0
-140 -365 -386 0
141 365 -387 0
-141 365 387 0
141 -365 387 0
-141 -365 -387 0
142 365 -388 0
-142 365 388 0
142 -365 388 0
-142 -365 -388 0
143 365 -389 0
-143 365 389 0
143 -365 389 0
-143 -365 -389 0
144 365 -390 0
-144 365 390 0
144 -365 390 0
-144 -365 -390 0
145 365 -391 0
-145 365 391 0
145 -365 391 0
-145 -365 -391 0
146 365 -392 0
-146 365 392 0
146 -365 392 0
-146 -365 -392 0
147 365 -393 0
-147 365 393 0
147 -365 393 0
-147 -365 -393 0
148 365 -394 0
-148 365 394 0
148 -365 394 0
-148 -365 -394 0
149 365 -395 0
-149 365 395 0
149 -365 395 0
-149 -365 -395 0
150 365 -396 0
-150 365 396 0
150 -365 396 0
-150 -365 -396 0
151 365 -397 0
-151 365 397 0
151 -365 397 0
-151 -365 -397 0
152 365 -398 0
-152 365 398 0
152 -365 398 0
-152 -365 -398 0
153 365 -399 0
-153 365 399 0
153 -365 399 0
-153 -365 -399 0
154 365 -400 0
-154 365 400 0
154 -365 400 0
-154 -365 -400 0
155 365 -401 0
-155 365 401 0
155 -365 401 0
-155 -365 -401 0
156 365 -402 0
-156 365 402 0
156 -365 402 0
-156 -365 -402 0
157 365 -403 0
-157 365 403 0
157 -365 403 0
-157 -365 -403 0
158 365 -404 0
-158 365 404 0
158 -365 404 0
-158 -365 -404 0
159 365 -405 0
-159 365 405 0
159 -365 405 0
-159 -365 -405 0
160 365 -406 0
-160 365 406 0
160 -365 406 0
-160 -365 -406 0
161 365 -407 0
-161 365 407 0
161 -365 407 0
-161 -365 -407 0
162 365 -408 0
-162 365 408 0
162 -365 408 0
-162 -365 -408 0
163 365 -409 0
-163 365 409 0
163 -365 409 0
-163 -365 -409 0
164 365 -410 0
-164 365 410 0
164 -365 410 0
-164 -365 -410 0
165 365 -411 0
-165 365 411 0
165 -365 411 0
-165 -365 -411 0
166 365 -412 0
-166 365 412 0
166 -365 412 0
-166 -365 -412 0
167 365 -413 0
-167 365 413 0
167 -365 413 0
-167 -365 -413 0
168 365 -414 0
-168 365 414 0
168 -365 414 0
-168 -365 -414 0
169 365 -415 0
-169 365 415 0
169 -365 415 0
-169 -365 -415 0
170 365 -416 0
-170 365 416 0
170 -365 416 0
-170 -365 -416 0
171 365 -417 0
-171 365 417 0
171 -365 417 0
-171 -365 -417 0
172 365 -418 0
-172 365 418 0
172 -365 418 0
-172 -365 -418 0
173 365 -419 0
-173 365 419 0
173 -365 419 0
-173 -365 -419 0
174 365 -420 0
-174 365 420 0
174 -365 420 0
-174 -365 -420 0
175 365 -421 0
-175 365 421 0
175 -365 421 0
-175 -365 -421 0
176 365 -422 0
-176 365 422 0
176 -365 422 0
-176 -365 -422 0
177 365 -423 0
-177 365 423 0
177 -365 423 0
-177 -365 -423 0
178 365 -424 0
-178 365 424 0
178 -365 424 0
-178 -365 -424 0
179 365 -425 0
-179 365 425 0
179 -365 425 0
-179 -365 -425 0
180 365 -426 0
-180 365 426 0
180 -365 426 0
-180 -365 -426 0
181 365 -427 0
-181 365 427 0
181 -365 427 0
-181 -365 -427 0
182 365 -428 0
-182 365 428 0
182 -365 428 0
-182 -365 -428 0
183 365 -429 0
-183 365 429 0
183 -365 429 0
-183 -365 -429 0
184 365 -430 0
-184 365 430 0
184 -365 430 0
-184 -365 -430 0
185 365 -431 0
-185 365 431 0
185 -365 431 0
-185 -365 -431 0
186 365 -432 0
-186 365 432 0
186 -365 432 0
-186 -365 -432 0
187 365 -433 0
-187 365 433 0
187 -365 433 0
-187 -365 -433 0
188 365 -434 0
-188 365 434 0
188 -365 434 0
-188 -365 -434 0
189 365 -435 0
-189 365 435 0
189 -365 435 0
-189 -365 -435 0
190 365 -436 0
-190 365 436 0
190 -365 436 0
-190 -365 -436 0
191 365 -437 0
-191 365 437 0
191 -365 437 0
-191 -365 -437 0
192 365 -438 0
-192 365 438 0
192 -365 438 0
-192 -365 -438 0
193 365 -439 0
-193 365 439 0
193 -365 439 0
-193 -365 -439 0
194 365 -440 0
-194 365 440 0
194 -365 440 0
-194 -365 -440 0
195 365 -441 0
-195 365 441 0
195 -365 441 0
-195 -365 -441 0
196 365 -442 0
-196 365 442 0
196 -365 442 0
-196 -365 -442 0
197 365 -443 0
-197 365 443 0
197 -365 443 0
-197 -365 -443 0
198 365 -444 0
-198 365 444 0
198 -365 444 0
-198 -365 -444 0
199 365 -445 0
-199 365 445 0
199 -365 445 0
-199 -365 -445 0
200 365 -446 0
-200 365 446 0
200 -365 446 0
-200 -365 -446 0
201 365 -447 0
-201 365 447 0
201 -365 447 0
-201 -365 -447 0
202 365 -448 0
-202 365 448 0
202 -365 448 0
-202 -365 -448 0
203 365 -449 0
-203 365 449 0
203 -365 449 0
-203 -365 -449 0
204 365 -450 0
-204 365 450 0
204 -365 450 0
-204 -365 -450 0
205 365 -451 0
-205 365 451 0
205 -365 451 0
-205 -365 -451 0
206 365 -452 0
-206 365 452 0
206 -365 452 0
-206 -365 -452 0
207 365 -453 0
-207 365 453 0
207 -365 453 0
-207 -365 -453 0
208 365 -454 0
-208 365 454 0
208 -365 454 0
-208 -365 -454 0
209 365 -455 0
-209 365 455 0
209 -365 455 0
-209 -365 -455 0
210 365 -456 0
-210 365 456 0
210 -365 456 0
-210 -365 -456 0
211 365 -457 0
-211 365 457 0
211 -365 457 0
-211 -365 -457 0
212 365 -458 0
-212 365 458 0
212 -365 458 0
-212 -365 -458 0
213 365 -459 0
-213 365 459 0
213 -365 459 0
-213 -365 -459 0
214 365 -460 0
-214 365 460 0
214 -365 460 0
-214 -365 -460 0
215 365 -461 0
-215 365 461 0
215 -365 461 0
-215 -365 -461 0
216 365 -462 0
-216 365 462 0
216 -365 462 0
-216 -365 -462 0
217 365 -463 0
-217 365 463 0
217 -365 463 0
-217 -365 -463 0
218 365 -464 0
-218 365 464 0
218 -365 464 0
-218 -365 -464 0
219 365 -465 0
-219 365 465 0
219 -365 465 0
-219 -365 -465 0
220 365 -466 0
-220 365 466 0
220 -365 466 0
-220 -365 -466 0
221 365 -467 0
-221 365 467 0
221 -365 467 0
-221 -365 -467 0
222 365 -468 0
-222 365 468 0
222 -365 468 0
-222 -365 -468 0
223 365 -469 0
-223 365 469 0
223 -365 469 0
-223 -365 -469 0
224 365 -470 0
-224 365 470 0
224 -365 470 0
-224 -365 -470 0
225 365 -471 0
-225 365 471 0
225 -365 471 0
-225 -365 -471 0
226 365 -472 0
-226 365 472 0
226 -365 472 0
-226 -365 -472 0
227 365 -473 0
-227 365 473 0
227 -365 473 0
-227 -365 -473 0
228 365 -474 0
-228 365 474 0
228 -365 474 0
-228 -365 -474 0
229 365 -475 0
-229 365 475 0
229 -365 475 0
-229 -365 -475 0
230 365 -476 0
-230 365 476 0
230 -365 476 0
-230 -365 -476 0
231 365 -477 0
-231 365 477 0
231 -365 477 0
-231 -365 -477 0
232 365 -478 0
-232 365 478 0
232 -365 478 0
-232 -365 -478 0
233 365 -479 0
-233 365 479 0
233 -365 479 0
-233 -365 -479 0
234 365 -480 0
-234 365 480 0
234 -365 480 0
-234 -365 -480 0
235 365 -481 0
-235 365 481 0
235 -365 481 0
-235 -365 -481 0
236 365 -482 0
-236 365 482 0
236 -365 482 0
-236 -365 -482 0
237 365 -483 0
-237 365 483 0
237 -365 483 0
-237 -365 -483 0
238 365 -484 0
-238 365 484 0
238 -365 484 0
-238 -365 -484 0
239 365 -485 0
-239 365 485 0
239 -365 485 0
-239 -365 -485 0
240 365 -486 0
-240 365 486 0
240 -365 486 0
-240 -365 -486 0
241 365 -487 0
-241 365 487 0
241 -365 487 0
-241 -365 -487 0
242 365 -488 0
-242 365 488 0
242 -365 488 0
-242 -365 -488 0
1 368 -490 0
-1 368 490 0
1 -368 490 0
-1 -368 -490 0
490 365 -243 0
-490 365 243 0
490 -365 243 0
-490 -365 -243 0
365 -491 0
490 -491 0
-365 -490 491 0
368 -492 0
1 -492 0
-368 -1 492 0
-491 489 0
-492 489 0
491 492 -489 0
2 369 -494 0
-2 369 494 0
2 -369 494 0
-2 -369 -494 0
494 489 -244 0
-494 489 244 0
494 -489 244 0
-494 -489 -244 0
489 -495 0
494 -495 0
-489 -494 495 0
369 -496 0
2 -496 0
-369 -2 496 0
-495 493 0
-496 493 0
495 496 -493 0
3 370 -498 0
-3 370 498 0
3 -370 498 0
-3 -370 -498 0
498 493 -245 0
-498 493 245 0
498 -493 245 0
-498 -493 -245 0
493 -499 0
498 -499 0
-493 -498 499 0
370 -500 0
3 -500 0
-370 -3 500 0
-499 497 0
-500 497 0
499 500 -497 0
4 371 -502 0
-4 371 502 0
4 -371 502 0
-4 -371 -502 0
502 497 -246 0
-502 497 246 0
502 -497 246 0
-502 -497 -246 0
497 -503 0
502 -503 0
-497 -502 503 0
371 -504 0
4 -504 0
-371 -4 504 0
-503 501 0
-504 501 0
503 504 -501 0
5 372 -506 0
-5 372 506 0
5 -372 506 0
-5 -372 -506 0
506 501 -247 0
-506 501 247 0
506 -501 247 0
-506 -501 -247 0
501 -507 0
506 -507 0
-501 -506 507 0
372 -508 0
5 -508 0
-372 -5 508 0
-507 505 0
-508 505 0
507 508 -505 0
6 373 -510 0
-6 373 510 0
6 -373 510 0
-6 -373 -510 0
510 505 -248 0
-510 505 248 0
510 -505 248 0
-510 -505 -248 0
505 -511 0
510 -511 0
-505 -510 511 0
373 -512 0
6 -512 0
-373 -6 512 0
-511 509 0
-512 509 0
511 512 -509 0
7 374 -514 0
-7 374 514 0
7 -374 514 0
-7 -374 -514 0
514 509 -249 0
-514 509 249 0
514 -509 249 0
-514 -509 -249 0
509 -515 0
514 -515 0
-509 -514 515 0
374 -516 0
7 -516 0
-374 -7 516 0
-515 513 0
-516 513 0
515 516 -513 0
8 375 -518 0
-8 375 518 0
8 -375 518 0
-8 -375 -518 0
518 513 -250 0
-518 513 250 0
518 -513 250 0
-518 -513 -250 0
513 -519 0
518 -519 0
-513 -518 519 0
375 -520 0
8 -520 0
-375 -8 520 0
-519 517 0
-520 517 0
519 520 -517 0
9 376 -522 0
-9 376 522 0
9 -376 522 0
-9 -376 -522 0
522 517 -251 0
-522 517 251 0
522 -517 251 0
-522 -517 -251 0
517 -523 0
522 -523 0
-517 -522 523 0
376 -524 0
9 -524 0
-376 -9 524 0
-523 521 0
-524 521 0
523 524 -521 0
10 377 -526 0
-10 377 526 0
10 -377 526 0
-10 -377 -526 0
526 521 -252 0
-526 521 252 0
526 -521 252 0
-526 -521 -252 0
521 -527 0
526 -527 0
-521 -526 527 0
377 -528 0
10 -528 0
-377 -10 528 0
-527 525 0
-528 525 0
527 528 -525 0
11 378 -530 0
-11 378 530 0
11 -378 530 0
-11 -378 -530 0
530 525 -253 0
-530 525 253 0
530 -525 253 0
-530 -525 -253 0
525 -531 0
530 -531 0
-525 -530 531 0
378 -532 0
11 -532 0
-378 -11 532 0
-531 529 0
-532 529 0
531 532 -529 0
12 379 -534 0
-12 379 534 0
12 -379 534 0
-12 -379 -534 0
534 529 -254 0
-534 529 254 0
534 -529 254 0
-534 -529 -254 0
529 -535 0
534 -535 0
-529 -534 535 0
379 -536 0
12 -536 0
-379 -12 536 0
-535 533 0
-536 533 0
535 536 -533 0
13 380 -538 0
-13 380 538 0
13 -380 538 0
-13 -380 -538 0
538 533 -255 0
-538 533 255 0
538 -533 255 0
-538 -533 -255 0
533 -539 0
538 -539 0
-533 -538 539 0
380 -540 0
13 -540 0
-380 -13 540 0
-539 537 0
-540 537 0
539 540 -537 0
14 381 -542 0
-14 381 542 0
14 -381 542 0
-14 -381 -542 0
542 537 -256 0
-542 537 256 0
542 -537 256 0
-542 -537 -256 0
537 -543 0
542 -543 0
-537 -542 543 0
381 -544 0
14 -544 0
-381 -14 544 0
-543 541 0
-544 541 0
543 544 -541 0
15 382 -546 0
-15 382 546 0
15 -382 546 0
-15 -382 -546 0
546 541 -257 0
-546 541 257 0
546 -541 257 0
-546 -541 -257 0
541 -547 0
546 -547 0
-541 -546 547 0
382 -548 0
15 -548 0
-382 -15 548 0
-547 545 0
-548 545 0
547 548 -545 0
16 383 -550 0
-16 383 550 0
16 -383 550 0
-16 -383 -550 0
550 545 -258 0
-550 545 258 0
550 -545 258 0
-550 -545 -258 0
545 -551 0
550 -551 0
-545 -550 551 0
383 -552 0
16 -552 0
-383 -16 552 0
-551 549 0
-552 549 0
551 552 -549 0
17 384 -554 0
-17 384 554 0
17 -384 554 0
-17 -384 -554 0
554 549 -259 0
-554 549 259 0
554 -549 259 0
-554 -549 -259 0
549 -555 0
554 -555 0
-549 -554 555 0
384 -556 0
17 -556 0
-384 -17 556 0
-555 553 0
-556 553 0
555 556 -553 0
18 385 -558 0
-18 385 558 0
18 -385 558 0
-18 -385 -558 0
558 553 -260 0
-558 553 260 0
558 -553 260 0
-558 -553 -260 0
553 -559 0
558 -559 0
-553 -558 559 0
385 -560 0
18 -560 0
-385 -18 560 0
-559 557 0
-560 557 0
559 560 -557 0
19 386 -562 0
-19 386 562 0
19 -386 562 0
-19 -386 -562 0
562 557 -261 0
-562 557 261 0
562 -557 261 0
-562 -557 -261 0
557 -563 0
562 -563 0
-557 -562 563 0
386 -564 0
19 -564 0
-386 -19 564 0
-563 561 0
-564 561 0
563 564 -561 0
20 387 -566 0
-20 387 566 0
20 -387 566 0
-20 -387 -566 0
566 561 -262 0
-566 561 262 0
566 -561 262 0
-566 -561 -262 0
561 -567 0
566 -567 0
-561 -566 567 0
387 -568 0
20 -568 0
-387 -20 568 0
-567 565 0
-568 565 0
567 568 -565 0
21 388 -570 0
-21 388 570 0
21 -388 570 0
-21 -388 -570 0
570 565 -263 0
-570 565 263 0
570 -565 263 0
-570 -565 -263 0
565 -571 0
570 -571 0
-565 -570 571 0
388 -572 0
21 -572 0
-388 -21 572 0
-571 569 0
-572 569 0
571 572 -569 0
22 389 -574 0
-22 389 574 0
22 -389 574 0
-22 -389 -574 0
574 569 -264 0
-574 569 264 0
574 -569 264 0
-574 -569 -264 0
569 -575 0
574 -575 0
-569 -574 575 0
389 -576 0
22 -576 0
-389 -22 576 0
-575 573 0
-576 573 0
575 576 -573 0
23 390 -578 0
-23 390 578 0
23 -390 578 0
-23 -390 -578 0
578 573 -265 0
-578 573 265 0
578 -573 265 0
-578 -573 -265 0
573 -579 0
578 -579 0
-573 -578 579 0
390 -580 0
23 -580 0
-390 -23 580 0
-579 577 0
-580 577 0
579 580 -577 0
24 391 -582 0
-24 391 582 0
24 -391 582 0
-24 -391 -582 0
582 577 -266 0
-582 577 266 0
582 -577 266 0
-582 -577 -266 0
577 -583 0
582 -583 0
-577 -582 583 0
391 -584 0
24 -584 0
-391 -24 584 0
-583 581 0
-584 581 0
583 584 -581 0
25 392 -586 0
-25 392 586 0
25 -392 586 0
-25 -392 -586 0
586 581 -267 0
-586 581 267 0
586 -581 267 0
-586 -581 -267 0
581 -587 0
586 -587 0
-581 -586 587 0
392 -588 0
25 -588 0
-392 -25 588 0
-587 585 0
-588 585 0
587 588 -585 0
26 393 -590 0
-26 393 590 0
26 -393 590 0
-26 -393 -590 0
590 585 -268 0
-590 585 268 0
590 -585 268 0
-590 -585 -268 0
585 -591 0
590 -591 0
-585 -590 591 0
393 -592 0
26 -592 0
-393 -26 592 0
-591 589 0
-592 589 0
591 592 -589 0
27 394 -594 0
-27 394 594 0
27 -394 594 0
-27 -394 -594 0
594 589 -269 0
-594 589 269 0
594 -589 269 0
-594 -589 -269 0
589 -595 0
594 -595 0
-589 -594 595 0
394 -596 0
27 -596 0
-394 -27 596 0
-595 593 0
-596 593 0
595 596 -593 0
28 395 -598 0
-28 395 598 0
28 -395 598 0
-28 -395 -598 0
598 593 -270 0
-598 593 270 0
598 -593 270 0
-598 -593 -270 0
593 -599 0
598 -599 0
-593 -598 599 0
395 -600 0
28 -600 0
-395 -28 600 0
-599 597 0
-600 597 0
599 600 -597 0
29 396 -602 0
-29 396 602 0
29 -396 602 0
-29 -396 -602 0
602 597 -271 0
-602 597 271 0
602 -597 271 0
-602 -597 -271 0
597 -603 0
602 -603 0
-597 -602 603 0
396 -604 0
29 -604 0
-396 -29 604 0
-603 601 0
-604 601 0
603 604 -601 0
30 397 -606 0
-30 397 606 0
30 -397 606 0
-30 -397 -606 0
606 601 -272 0
-606 601 272 0
606 -601 272 0
-606 -601 -272 0
601 -607 0
606 -607 0
-601 -606 607 0
397 -608 0
30 -608 0
-397 -30 608 0
-607 605 0
-608 605 0
607 608 -605 0
31 398 -610 0
-31 398 610 0
31 -398 610 0
-31 -398 -610 0
610 605 -273 0
-610 605 273 0
610 -605 273 0
-610 -605 -273 0
605 -611 0
610 -611 0
-605 -610 611 0
398 -612 0
31 -612 0
-398 -31 612 0
-611 609 0
-612 609 0
611 612 -609 0
32 399 -614 0
-32 399 614 0
32 -399 614 0
-32 -399 -614 0
614 609 -274 0
-614 609 274 0
614 -609 274 0
-614 -609 -274 0
609 -615 0
614 -615 0
-609 -614 615 0
399 -616 0
32 -616 0
-399 -32 616 0
-615 613 0
-616 613 0
615 616 -613 0
33 400 -618 0
-33 400 618 0
33 -400 618 0
-33 -400 -618 0
618 613 -275 0
-618 613 275 0
618 -613 275 0
-618 -613 -275 0
613 -619 0
618 -619 0
-613 -618 619 0
400 -620 0
33 -620 0
-400 -33 620 0
-619 617 0
-620 617 0
619 620 -617 0
34 401 -622 0
-34 401 622 0
34 -401 622 0
-34 -401 -622 0
622 617 -276 0
-622 617 276 0
622 -617 276 0
-622 -617 -276 0
617 -623 0
622 -623 0
-617 -622 623 0
401 -624 0
34 -624 0
-401 -34 624 0
-623 621 0
-624 621 0
623 624 -621 0
35 402 -626 0
-35 402 626 0
35 -402 626 0
-35 -402 -626 0
626 621 -277 0
-626 621 277 0
626 -621 277 0
-626 -621 -277 0
621 -627 0
626 -627 0
-621 -626 627 0
402 -628 0
35 -628 0
-402 -35 628 0
-627 625 0
-628 625 0
627 628 -625 0
36 403 -630 0
-36 403 630 0
36 -403 630 0
-36 -403 -630 0
630 625 -278 0
-630 625 278 0
630 -625 278 0
-630 -625 -278 0
625 -631 0
630 -631 0
-625 -630 631 0
403 -632 0
36 -632 0
-403 -36 632 0
-631 629 0
-632 629 0
631 632 -629 0
37 404 -634 0
-37 404 634 0
37 -404 634 0
-37 -404 -634 0
634 629 -279 0
-634 629 279 0
634 -629 279 0
-634 -629 -279 0
629 -635 0
634 -635 0
-629 -634 635 0
404 -636 0
37 -636 0
-404 -37 636 0
-635 633 0
-636 633 0
635 636 -633 0
38 405 -638 0
-38 405 638 0
38 -405 638 0
-38 -405 -638 0
638 633 -280 0
-638 633 280 0
638 -633 280 0
-638 -633 -280 0
633 -639 0
638 -639 0
-633 -638 639 0
405 -640 0
38 -640 0
-405 -38 640 0
-639 637 0
-640 637 0
639 640 -637 0
39 406 -642 0
-39 406 642 0
39 -406 642 0
-39 -406 -642 0
642 637 -281 0
-642 637 281 0
642 -637 281 0
-642 -637 -281 0
637 -643 0
642 -643 0
-637 -642 643 0
406 -644 0
39 -644 0
-406 -39 644 0
-643 641 0
-644 641 0
643 644 -641 0
40 407 -646 0
-40 407 646 0
40 -407 646 0
-40 -407 -646 0
646 641 -282 0
-646 641 282 0
646 -641 282 0
-646 -641 -282 0
641 -647 0
646 -647 0
-641 -646 647 0
407 -648 0
40 -648 0
-407 -40 648 0
-647 645 0
-648 645 0
647 648 -645 0
41 408 -650 0
-41 408 650 0
41 -408 650 0
-41 -408 -650 0
650 645 -283 0
-650 645 283 0
650 -645 283 0
-650 -645 -283 0
645 -651 0
650 -651 0
-645 -650 651 0
408 -652 0
41 -652 0
-408 -41 652 0
-651 649 0
-652 649 0
651 652 -649 0
42 409 -654 0
-42 409 654 0
42 -409 654 0
-42 -409 -654 0
654 649 -284 0
-654 649 284 0
654 -649 284 0
-654 -649 -284 0
649 -655 0
654 -655 0
-649 -654 655 0
409 -656 0
42 -656 0
-409 -42 656 0
-655 653 0
-656 653 0
655 656 -653 0
43 410 -658 0
-43 410 658 0
43 -410 658 0
-43 -410 -658 0
658 653 -285 0
-658 653 285 0
658 -653 285 0
-658 -653 -285 0
653 -659 0
658 -659 0
-653 -658 659 0
410 -660 0
43 -660 0
-410 -43 660 0
-659 657 0
-660 657 0
659 660 -657 0
44 411 -662 0
-44 411 662 0
44 -411 662 0
-44 -411 -662 0
662 657 -286 0
-662 657 286 0
662 -657 286 0
-662 -657 -286 0
657 -663 0
662 -663 0
-657 -662 663 0
411 -664 0
44 -664 0
-411 -44 664 0
-663 661 0
-664 661 0
663 664 -661 0
45 412 -666 0
-45 412 666 0
45 -412 666 0
-45 -412 -666 0
666 661 -287 0
-666 661 287 0
666 -661 287 0
-666 -661 -287 0
661 -667 0
666 -667 0
-661 -666 667 0
412 -668 0
45 -668 0
-412 -45 668 0
-667 665 0
-668 665 0
667 668 -665 0
46 413 -670 0
-46 413 670 0
46 -413 670 0
-46 -413 -670 0
670 665 -288 0
-670 665 288 0
670 -665 288 0
-670 -665 -288 0
665 -671 0
670 -671 0
-665 -670 671 0
413 -672 0
46 -672 0
-413 -46 672 0
-671 669 0
-672 669 0
671 672 -669 0
47 414 -674 0
-47 414 674 0
47 -414 674 0
-47 -414 -674 0
674 669 -289 0
-674 669 289 0
674 -669 289 0
-674 -669 -289 0
669 -675 0
674 -675 0
-669 -674 675 0
414 -676 0
47 -676 0
-414 -47 676 0
-675 673 0
-676 673 0
675 676 -673 0
48 415 -678 0
-48 415 678 0
48 -415 678 0
-48 -415 -678 0
678 673 -290 0
-678 673 290 0
678 -673 290 0
-678 -673 -290 0
673 -679 0
678 -679 0
-673 -678 679 0
415 -680 0
48 -680 0
-415 -48 680 0
-679 677 0
-680 677 0
679 680 -677 0
49 416 -682 0
-49 416 682 0
49 -416 682 0
-49 -416 -682 0
682 677 -291 0
-682 677 291 0
682 -677 291 0
-682 -677 -291 0
677 -683 0
682 -683 0
-677 -682 683 0
416 -684 0
49 -684 0
-416 -49 684 0
-683 681 0
-684 681 0
683 684 -681 0
50 417 -686 0
-50 417 686 0
50 -417 686 0
-50 -417 -686 0
686 681 -292 0
-686 681 292 0
686 -681 292 0
-686 -681 -292 0
681 -687 0
686 -687 0
-681 -686 687 0
417 -688 0
50 -688 0
-417 -50 688 0
-687 685 0
-688 685 0
687 688 -685 0
51 418 -690 0
-51 418 690 0
51 -418 690 0
-51 -418 -690 0
690 685 -293 0
-690 685 293 0
690 -685 293 0
-690 -685 -293 0
685 -691 0
690 -691 0
-685 -690 691 0
418 -692 0
51 -692 0
-418 -51 692 0
-691 689 0
-692 689 0
691 692 -689 0
52 419 -694 0
-52 419 694 0
52 -419 694 0
-52 -419 -694 0
694 689 -294 0
-694 689 294 0
694 -689 294 0
-694 -689 -294 0
689 -695 0
694 -695 0
-689 -694 695 0
419 -696 0
52 -696 0
-419 -52 696 0
-695 693 0
-696 693 0
695 696 -693 0
53 420 -698 0
-53 420 698 0
53 -420 698 0
-53 -420 -698 0
698 693 -295 0
-698 693 295 0
698 -693 295 0
-698 -693 -295 0
693 -699 0
698 -699 0
-693 -698 699 0
420 -700 0
53 -700 0
-420 -53 700 0
-699 697 0
-700 697 0
699 700 -697 0
54 421 -702 0
-54 421 702 0
54 -421 702 0
-54 -421 -702 0
702 697 -296 0
-702 697 296 0
702 -697 296 0
-702 -697 -296 0
697 -703 0
702 -703 0
-697 -702 703 0
421 -704 0
54 -704 0
-421 -54 704 0
-703 701 0
-704 701 0
703 704 -701 0
55 422 -706 0
-55 422 706 0
55 -422 706 0
-55 -422 -706 0
706 701 -297 0
-706 701 297 0
706 -701 297 0
-706 -701 -297 0
701 -707 0
706 -707 0
-701 -706 707 0
422 -708 0
55 -708 0
-422 -55 708 0
-707 705 0
-708 705 0
707 708 -705 0
56 423 -710 0
-56 423 710 0
56 -423 710 0
-56 -423 -710 0
710 705 -298 0
-710 705 298 0
710 -705 298 0
-710 -705 -298 0
705 -711 0
710 -711 0
-705 -710 711 0
423 -712 0
56 -712 0
-423 -56 712 0
-711 709 0
-712 709 0
711 712 -709 0
57 424 -714 0
-57 424 714 0
57 -424 714 0
-57 -424 -714 0
714 709 -299 0
-714 709 299 0
714 -709 299 0
-714 -709 -299 0
709 -715 0
714 -715 0
-709 -714 715 0
424 -716 0
57 -716 0
-424 -57 716 0
-715 713 0
-716 713 0
715 716 -713 0
58 425 -718 0
-58 425 718 0
58 -425 718 0
-58 -425 -718 0
718 713 -300 0
-718 713 300 0
718 -713 300 0
-718 -713 -300 0
713 -719 0
718 -719 0
-713 -718 719 0
425 -720 0
58 -720 0
-425 -58 720 0
-719 717 0
-720 717 0
719 720 -717 0
59 426 -722 0
-59 426 722 0
59 -426 722 0
-59 -426 -722 0
722 717 -301 0
-722 717 301 0
722 -717 301 0
-722 -717 -301 0
717 -723 0
722 -723 0
-717 -722 723 0
426 -724 0
59 -724 0
-426 -59 724 0
-723 721 0
-724 721 0
723 724 -721 0
60 427 -726 0
-60 427 726 0
60 -427 726 0
-60 -427 -726 0
726 721 -302 0
-726 721 302 0
726 -721 302 0
-726 -721 -302 0
721 -727 0
726 -727 0
-721 -726 727 0
427 -728 0
60 -728 0
-427 -60 728 0
-727 725 0
-728 725 0
727 728 -725 0
61 428 -730 0
-61 428 730 0
61 -428 730 0
-61 -428 -730 0
730 725 -303 0
-730 725 303 0
730 -725 303 0
-730 -725 -303 0
725 -731 0
730 -731 0
-725 -730 731 0
428 -732 0
61 -732 0
-428 -61 732 0
-731 729 0
-732 729 0
731 732 -729 0
62 429 -734 0
-62 429 734 0
62 -429 734 0
-62 -429 -734 0
734 729 -304 0
-734 729 304 0
734 -729 304 0
-734 -729 -304 0
729 -735 0
734 -735 0
-729 -734 735 0
429 -736 0
62 -736 0
-429 -62 736 0
-735 733 0
-736 733 0
735 736 -733 0
63 430 -738 0
-63 430 738 0
63 -430 738 0
-63 -430 -738 0
738 733 -305 0
-738 733 305 0
738 -733 305 0
-738 -733 -305 0
733 -739 0
738 -739 0
-733 -738 739 0
430 -740 0
63 -740 0
-430 -63 740 0
-739 737 0
-740 737 0
739 740 -737 0
64 431 -742 0
-64 431 742 0
64 -431 742 0
-64 -431 -742 0
742 737 -306 0
-742 737 306 0
742 -737 306 0
-742 -737 -306 0
737 -743 0
742 -743 0
-737 -742 743 0
431 -744 0
64 -744 0
-431 -64 744 0
-743 741 0
-744 741 0
743 744 -741 0
65 432 -746 0
-65 432 746 0
65 -432 746 0
-65 -432 -746 0
746 741 -307 0
-746 741 307 0
746 -741 307 0
-746 -741 -307 0
741 -747 0
746 -747 0
-741 -746 747 0
432 -748 0
65 -748 0
-432 -65 748 0
-747 745 0
-748 745 0
747 748 -745 0
66 433 -750 0
-66 433 750 0
66 -433 750 0
-66 -433 -750 0
750 745 -308 0
-750 745 308 0
750 -745 308 0
-750 -745 -308 0
745 -751 0
750 -751 0
-745 -750 751 0
433 -752 0
66 -752 0
-433 -66 752 0
-751 749 0
-752 749 0
751 752 -749 0
67 434 -754 0
-67 434 754 0
67 -434 754 0
-67 -434 -754 0
754 749 -309 0
-754 749 309 0
754 -749 309 0
-754 -749 -309 0
749 -755 0
754 -755 0
-749 -754 755 0
434 -756 0
67 -756 0
-434 -67 756 0
-755 753 0
-756 753 0
755 756 -753 0
68 435 -758 0
-68 435 758 0
68 -435 758 0
-68 -435 -758 0
758 753 -310 0
-758 753 310 0
758 -753 310 0
-758 -753 -310 0
753 -759 0
758 -759 0
-753 -758 759 0
435 -760 0
68 -760 0
-435 -68 760 0
-759 757 0
-760 757 0
759 760 -757 0
69 436 -762 0
-69 436 762 0
69 -436 762 0
-69 -436 -762 0
762 757 -311 0
-762 757 311 0
762 -757 311 0
-762 -757 -311 0
757 -763 0
762 -763 0
-757 -762 763 0
436 -764 0
69 -764 0
-436 -69 764 0
-763 761 0
-764 761 0
763 764 -761 0
70 437 -766 0
-70 437 766 0
70 -437 766 0
-70 -437 -766 0
766 761 -312 0
-766 761 312 0
766 -761 312 0
-766 -761 -312 0
761 -767 0
766 -767 0
-761 -766 767 0
437 -768 0
70 -768 0
-437 -70 768 0
-767 765 0
-768 765 0
767 768 -765 0
71 438 -770 0
-71 438 770 0
71 -438 770 0
-71 -438 -770 0
770 765 -313 0
-770 765 313 0
770 -765 313 0
-770 -765 -313 0
765 -771 0
770 -771 0
-765 -770 771 0
438 -772 0
71 -772 0
-438 -71 772 0
-771 769 0
-772 769 0
771 772 -769 0
72 439 -774 0
-72 439 774 0
72 -439 774 0
-72 -439 -774 0
774 769 -314 0
-774 769 314 0
774 -769 314 0
-774 -769 -314 0
769 -775 0
774 -775 0
-769 -774 775 0
439 -776 0
72 -776 0
-439 -72 776 0
-775 773 0
-776 773 0
775 776 -773 0
73 440 -778 0
-73 440 778 0
73 -440 778 0
-73 -440 -778 0
778 773 -315 0
-778 773 315 0
778 -773 315 0
-778 -773 -315 0
773 -779 0
778 -779 0
-773 -778 779 0
440 -780 0
73 -780 0
-440 -73 780 0
-779 777 0
-780 777 0
779 780 -777 0
74 441 -782 0
-74 441 782 0
74 -441 782 0
-74 -441 -782 0
782 777 -316 0
-782 777 316 0
782 -777 316 0
-782 -777 -316 0
777 -783 0
782 -783 0
-777 -782 783 0
441 -784 0
74 -784 0
-441 -74 784 0
-783 781 0
-784 781 0
783 784 -781 0
75 442 -786 0
-75 442 786 0
75 -442 786 0
-75 -442 -786 0
786 781 -317 0
-786 781 317 0
786 -781 317 0
-786 -781 -317 0
781 -787 0
786 -787 0
-781 -786 787 0
442 -788 0
75 -788 0
-442 -75 788 0
-787 785 0
-788 785 0
787 788 -785 0
76 443 -790 0
-76 443 790 0
76 -443 790 0
-76 -443 -790 0
790 785 -318 0
-790 785 318 0
790 -785 318 0
-790 -785 -318 0
785 -791 0
790 -791 0
-785 -790 791 0
443 -792 0
76 -792 0
-443 -76 792 0
-791 789 0
-792 789 0
791 792 -789 0
77 444 -794 0
-77 444 794 0
77 -444 794 0
-77 -444 -794 0
794 789 -319 0
-794 789 319 0
794 -789 319 0
-794 -789 -319 0
789 -795 0
794 -795 0
-789 -794 795 0
444 -796 0
77 -796 0
-444 -77 796 0
-795 793 0
-796 793 0
795 796 -793 0
78 445 -798 0
-78 445 798 0
78 -445 798 0
-78 -445 -798 0
798 793 -320 0
-798 793 320 0
798 -793 320 0
-798 -793 -320 0
793 -799 0
798 -799 0
-793 -798 799 0
445 -800 0
78 -800 0
-445 -78 800 0
-799 797 0
-800 797 0
799 800 -797 0
79 446 -802 0
-79 446 802 0
79 -446 802 0
-79 -446 -802 0
802 797 -321 0
-802 797 321 0
802 -797 321 0
-802 -797 -321 0
797 -803 0
802 -803 0
-797 -802 803 0
446 -804 0
79 -804 0
-446 -79 804 0
-803 801 0
-804 801 0
803 804 -801 0
80 447 -806 0
-80 447 806 0
80 -447 806 0
-80 -447 -806 0
806 801 -322 0
-806 801 322 0
806 -801 322 0
-806 -801 -322 0
801 -807 0
806 -807 0
-801 -806 807 0
447 -808 0
80 -808 0
-447 -80 808 0
-807 805 0
-808 805 0
807 808 -805 0
81 448 -810 0
-81 448 810 0
81 -448 810 0
-81 -448 -810 0
810 805 -323 0
-810 805 323 0
810 -805 323 0
-810 -805 -323 0
805 -811 0
810 -811 0
-805 -810 811 0
448 -812 0
81 -812 0
-448 -81 812 0
-811 809 0
-812 809 0
811 812 -809 0
82 449 -814 0
-82 449 814 0
82 -449 814 0
-82 -449 -814 0
814 809 -324 0
-814 809 324 0
814 -809 324 0
-814 -809 -324 0
809 -815 0
814 -815 0
-809 -814 815 0
449 -816 0
82 -816 0
-449 -82 816 0
-815 813 0
-816 813 0
815 816 -813 0
83 450 -818 0
-83 450 818 0
83 -450 818 0
-83 -450 -818 0
818 813 -325 0
-818 813 325 0
818 -813 325 0
-818 -813 -325 0
813 -819 0
818 -819 0
-813 -818 819 0
450 -820 0
83 -820 0
-450 -83 820 0
-819 817 0
-820 817 0
819 820 -817 0
84 451 -822 0
-84 451 822 0
84 -451 822 0
-84 -451 -822 0
822 817 -326 0
-822 817 326 0
822 -817 326 0
-822 -817 -326 0
817 -823 0
822 -823 0
-817 -822 823 0
451 -824 0
84 -824 0
-451 -84 824 0
-823 821 0
-824 821 0
823 824 -821 0
85 452 -826 0
-85 452 826 0
85 -452 826 0
-85 -452 -826 0
826 821 -327 0
-826 821 327 0
826 -821 327 0
-826 -821 -327 0
821 -827 0
826 -827 0
-821 -826 827 0
452 -828 0
85 -828 0
-452 -85 828 0
-827 825 0
-828 825 0
827 828 -825 0
86 453 -830 0
-86 453 830 0
86 -453 830 0
-86 -453 -830 0
830 825 -328 0
-830 825 328 0
830 -825 328 0
-830 -825 -328 0
825 -831 0
830 -831 0
-825 -830 831 0
453 -832 0
86 -832 0
-453 -86 832 0
-831 829 0
-832 829 0
831 832 -829 0
87 454 -834 0
-87 454 834 0
87 -454 834 0
-87 -454 -834 0
834 829 -329 0
-834 829 329 0
834 -829 329 0
-834 -829 -329 0
829 -835 0
834 -835 0
-829 -834 835 0
454 -836 0
87 -836 0
-454 -87 836 0
-835 833 0
-836 833 0
835 836 -833 0
88 455 -838 0
-88 455 838 0
88 -455 838 0
-88 -455 -838 0
838 833 -330 0
-838 833 330 0
838 -833 330 0
-838 -833 -330 0
833 -839 0
838 -839 0
-833 -838 839 0
455 -840 0
88 -840 0
-455 -88 840 0
-839 837 0
-840 837 0
839 840 -837 0
89 456 -842 0
-89 456 842 0
89 -456 842 0
-89 -456 -842 0
842 837 -331 0
-842 837 331 0
842 -837 331 0
-842 -837 -331 0
837 -843 0
842 -843 0
-837 -842 843 0
456 -844 0
89 -844 0
-456 -89 844 0
-843 841 0
-844 841 0
843 844 -841 0
90 457 -846 0
-90 457 846 0
90 -457 846 0
-90 -457 -846 0
846 841 -332 0
-846 841 332 0
846 -841 332 0
-846 -841 -332 0
841 -847 0
846 -847 0
-841 -846 847 0
457 -848 0
90 -848 0
-457 -90 848 0
-847 845 0
-848 845 0
847 848 -845 0
91 458 -850 0
-91 458 850 0
91 -458 850 0
-91 -458 -850 0
850 845 -333 0
-850 845 333 0
850 -845 333 0
-850 -845 -333 0
845 -851 0
850 -851 0
-845 -850 851 0
458 -852 0
91 -852 0
-458 -91 852 0
-851 849 0
-852 849 0
851 852 -849 0
92 459 -854 0
-92 459 854 0
92 -459 854 0
-92 -459 -854 0
854 849 -334 0
-854 849 334 0
854 -849 334 0
-854 -849 -334 0
849 -855 0
854 -855 0
-849 -854 855 0
459 -856 0
92 -856 0
-459 -92 856 0
-855 853 0
-856 853 0
855 856 -853 0
93 460 -858 0
-93 460 858 0
93 -460 858 0
-93 -460 -858 0
858 853 -335 0
-858 853 335 0
858 -853 335 0
-858 -853 -335 0
853 -859 0
858 -859 0
-853 -858 859 0
460 -860 0
93 -860 0
-460 -93 860 0
-859 857 0
-860 857 0
859 860 -857 0
94 461 -862 0
-94 461 862 0
94 -461 862 0
-94 -461 -862 0
862 857 -336 0
-862 857 336 0
862 -857 336 0
-862 -857 -336 0
857 -863 0
862 -863 0
-857 -862 863 0
461 -864 0
94 -864 0
-461 -94 864 0
-863 861 0
-864 861 0
863 864 -861 0
95 462 -866 0
-95 462 866 0
95 -462 866 0
-95 -462 -866 0
866 861 -337 0
-866 861 337 0
866 -861 337 0
-866 -861 -337 0
861 -867 0
866 -867 0
-861 -866 867 0
462 -868 0
95 -868 0
-462 -95 868 0
-867 865 0
-868 865 0
867 868 -865 0
96 463 -870 0
-96 463 870 0
96 -463 870 0
-96 -463 -870 0
870 865 -338 0
-870 865 338 0
870 -865 338 0
-870 -865 -338 0
865 -871 0
870 -871 0
-865 -870 871 0
463 -872 0
96 -872 0
-463 -96 872 0
-871 869 0
-872 869 0
871 872 -869 0
97 464 -874 0
-97 464 874 0
97 -464 874 0
-97 -464 -874 0
874 869 -339 0
-874 869 339 0
874 -869 339 0
-874 -869 -339 0
869 -875 0
874 -875 0
-869 -874 875 0
464 -876 0
97 -876 0
-464 -97 876 0
-875 873 0
-876 873 0
875 876 -873 0
98 465 -878 0
-98 465 878 0
98 -465 878 0
-98 -465 -878 0
878 873 -340 0
-878 873 340 0
878 -873 340 0
-878 -873 -340 0
873 -879 0
878 -879 0
-873 -878 879 0
465 -880 0
98 -880 0
-465 -98 880 0
-879 877 0
-880 877 0
879 880 -877 0
99 466 -882 0
-99 466 882 0
99 -466 882 0
-99 -466 -882 0
882 877 -341 0
-882 877 341 0
882 -877 341 0
-882 -877 -341 0
877 -883 0
882 -883 0
-877 -882 883 0
466 -884 0
99 -884 0
-466 -99 884 0
-883 881 0
-884 881 0
883 884 -881 0
100 467 -886 0
-100 467 886 0
100 -467 886 0
-100 -467 -886 0
886 881 -342 0
-886 881 342 0
886 -881 342 0
-886 -881 -342 0
881 -887 0
886 -887 0
-881 -886 887 0
467 -888 0
100 -888 0
-467 -100 888 0
-887 885 0
-888 885 0
887 888 -885 0
101 468 -890 0
-101 468 890 0
101 -468 890 0
-101 -468 -890 0
890 885 -343 0
-890 885 343 0
890 -885 343 0
-890 -885 -343 0
885 -891 0
890 -891 0
-885 -890 891 0
468 -892 0
101 -892 0
-468 -101 892 0
-891 889 0
-892 889 0
891 892 -889 0
102 469 -894 0
-102 469 894 0
102 -469 894 0
-102 -469 -894 0
894 889 -344 0
-894 889 344 0
894 -889 344 0
-894 -889 -344 0
889 -895 0
894 -895 0
-889 -894 895 0
469 -896 0
102 -896 0
-469 -102 896 0
-895 893 0
-896 893 0
895 896 -893 0
103 470 -898 0
-103 470 898 0
103 -470 898 0
-103 -470 -898 0
898 893 -345 0
-898 893 345 0
898 -893 345 0
-898 -893 -345 0
893 -899 0
898 -899 0
-893 -898 899 0
470 -900 0
103 -900 0
-470 -103 900 0
-899 897 0
-900 897 0
899 900 -897 0
104 471 -902 0
-104 471 902 0
104 -471 902 0
-104 -471 -902 0
902 897 -346 0
-902 897 346 0
902 -897 346 0
-902 -897 -346 0
897 -903 0
902 -903 0
-897 -902 903 0
471 -904 0
104 -904 0
-471 -104 904 0
-903 901 0
-904 901 0
903 904 -901 0
105 472 -906 0
-105 472 906 0
105 -472 906 0
-105 -472 -906 0
906 901 -347 0
-906 901 347 0
906 -901 347 0
-906 -901 -347 0
901 -907 0
906 -907 0
-901 -906 907 0
472 -908 0
105 -908 0
-472 -105 908 0
-907 905 0
-908 905 0
907 908 -905 0
106 473 -910 0
-106 473 910 0
106 -473 910 0
-106 -473 -910 0
910 905 -348 0
-910 905 348 0
910 -905 348 0
-910 -905 -348 0
905 -911 0
910 -911 0
-905 -910 911 0
473 -912 0
106 -912 0
-473 -106 912 0
-911 909 0
-912 909 0
911 912 -909 0
107 474 -914 0
-107 474 914 0
107 -474 914 0
-107 -474 -914 0
914 909 -349 0
-914 909 349 0
914 -909 349 0
-914 -909 -349 0
909 -915 0
914 -915 0
-909 -914 915 0
474 -916 0
107 -916 0
-474 -107 916 0
-915 913 0
-916 913 0
915 916 -913 0
108 475 -918 0
-108 475 918 0
108 -475 918 0
-108 -475 -918 0
918 913 -350 0
-918 913 350 0
918 -913 350 0
-918 -913 -350 0
913 -919 0
918 -919 0
-913 -918 919 0
475 -920 0
108 -920 0
-475 -108 920 0
-919 917 0
-920 917 0
919 920 -917 0
109 476 -922 0
-109 476 922 0
109 -476 922 0
-109 -476 -922 0
922 917 -351 0
-922 917 351 0
922 -917 351 0
-922 -917 -351 0
917 -923 0
922 -923 0
-917 -922 923 0
476 -924 0
109 -924 0
-476 -109 924 0
-923 921 0
-924 921 0
923 924 -921 0
110 477 -926 0
-110 477 926 0
110 -477 926 0
-110 -477 -926 0
926 921 -352 0
-926 921 352 0
926 -921 352 0
-926 -921 -352 0
921 -927 0
926 -927 0
-921 -926 927 0
477 -928 0
110 -928 0
-477 -110 928 0
-927 925 0
-928 925 0
927 928 -925 0
111 478 -930 0
-111 478 930 0
111 -478 930 0
-111 -478 -930 0
930 925 -353 0
-930 925 353 0
930 -925 353 0
-930 -925 -353 0
925 -931 0
930 -931 0
-925 -930 931 0
478 -932 0
111 -932 0
-478 -111 932 0
-931 929 0
-932 929 0
931 932 -929 0
112 479 -934 0
-112 479 934 0
112 -479 934 0
-112 -479 -934 0
934 929 -354 0
-934 929 354 0
934 -929 354 0
-934 -929 -354 0
929 -935 0
934 -935 0
-929 -934 935 0
479 -936 0
112 -936 0
-479 -112 936 0
-935 933 0
-936 933 0
935 936 -933 0
113 480 -938 0
-113 480 938 0
113 -480 938 0
-113 -480 -938 0
938 933 -355 0
-938 933 355 0
938 -933 355 0
-938 -933 -355 0
933 -939 0
938 -939 0
-933 -938 939 0
480 -940 0
113 -940 0
-480 -113 940 0
-939 937 0
-940 937 0
939 940 -937 0
114 481 -942 0
-114 481 942 0
114 -481 942 0
-114 -481 -942 0
942 937 -356 0
-942 937 356 0
942 -937 356 0
-942 -937 -356 0
937 -943 0
942 -943 0
-937 -942 943 0
481 -944 0
114 -944 0
-481 -114 944 0
-943 941 0
-944 941 0
943 944 -941 0
115 482 -946 0
-115 482 946 0
115 -482 946 0
-115 -482 -946 0
946 941 -357 0
-946 941 357 0
946 -941 357 0
-946 -941 -357 0
941 -947 0
946 -947 0
-941 -946 947 0
482 -948 0
115 -948 0
-482 -115 948 0
-947 945 0
-948 945 0
947 948 -945 0
116 483 -950 0
-116 483 950 0
116 -483 950 0
-116 -483 -950 0
950 945 -358 0
-950 945 358 0
950 -945 358 0
-950 -945 -358 0
945 -951 0
950 -951 0
-945 -950 951 0
483 -952 0
116 -952 0
-483 -116 952 0
-951 949 0
-952 949 0
951 952 -949 0
117 484 -954 0
-117 484 954 0
117 -484 954 0
-117 -484 -954 0
954 949 -359 0
-954 949 359 0
954 -949 359 0
-954 -949 -359 0
949 -955 0
954 -955 0
-949 -954 955 0
484 -956 0
117 -956 0
-484 -117 956 0
-955 953 0
-956 953 0
955 956 -953 0
118 485 -958 0
-118 485 958 0
118 -485 958 0
-118 -485 -958 0
958 953 -360 0
-958 953 360 0
958 -953 360 0
-958 -953 -360 0
953 -959 0
958 -959 0
-953 -958 959 0
485 -960 0
118 -960 0
-485 -118 960 0
-959 957 0
-960 957 0
959 960 -957 0
119 486 -962 0
-119 486 962 0
119 -486 962 0
-119 -486 -962 0
962 957 -361 0
-962 957 361 0
962 -957 361 0
-962 -957 -361 0
957 -963 0
962 -963 0
-957 -962 963 0
486 -964 0
119 -964 0
-486 -119 964 0
-963 961 0
-964 961 0
963 964 -961 0
120 487 -966 0
-120 487 966 0
120 -487 966 0
-120 -487 -966 0
966 961 -362 0
-966 961 362 0
966 -961 362 0
-966 -961 -362 0
961 -967 0
966 -967 0
-961 -966 967 0
487 -968 0
120 -968 0
-487 -120 968 0
-967 965 0
-968 965 0
967 968 -965 0
121 488 -970 0
-121 488 970 0
121 -488 970 0
-121 -488 -970 0
970 965 -363 0
-970 965 363 0
970 -965 363 0
-970 -965 -363 0
965 -971 0
970 -971 0
-965 -970 971 0
488 -972 0
121 -972 0
-488 -121 972 0
-971 969 0
-972 969 0
971 972 -969 0
969 365 -364 0
-969 365 364 0
969 -365 364 0
-969 -365 -364 0
